\ Model P2E2_ILP
\ LP format - for model browsing. Use MPS format to capture full model detail.
Minimize
  a0 + a1 + a2 + a3 + a4 + a5 + a6 + a7 + a8 + a9 + a10 + a11 + a12 + a13
Subject To
 head_hidden_0: a0 - h0_0 = 0
 rdr_addr_0: b0 - h0_0 = 0
 tail_sync_0_0: - a0 + t0_0 = 0
 tail_sync_0_1: - a1 + t0_1 = 0
 tail_sync_0_2: - a2 + t0_2 = 0
 tail_req_0: - b0 + t0_1 + t0_2 >= 0
 head_hidden_1: a0 - h1_0 = 0
 rdr_addr_1: b1 - h1_0 = 0
 tail_sync_1_0: - a0 + t1_0 = 0
 tail_sync_1_1: - a1 + t1_1 = 0
 tail_sync_1_3: - a3 + t1_3 = 0
 tail_req_1: - b1 + t1_1 + t1_3 >= 0
 head_hidden_2: a0 - h2_0 = 0
 rdr_addr_2: b2 - h2_0 = 0
 tail_sync_2_0: - a0 + t2_0 = 0
 tail_sync_2_4: - a4 + t2_4 = 0
 tail_sync_2_5: - a5 + t2_5 = 0
 tail_req_2: - b2 + t2_4 + t2_5 >= 0
 head_hidden_3: a0 - h3_0 = 0
 rdr_addr_3: b3 - h3_0 = 0
 tail_sync_3_0: - a0 + t3_0 = 0
 tail_sync_3_1: - a1 + t3_1 = 0
 tail_sync_3_6: - a6 + t3_6 = 0
 tail_req_3: - b3 + t3_1 + t3_6 >= 0
 head_hidden_4: a0 - h4_0 = 0
 rdr_addr_4: b4 - h4_0 = 0
 tail_sync_4_0: - a0 + t4_0 = 0
 tail_sync_4_5: - a5 + t4_5 = 0
 tail_sync_4_3: - a3 + t4_3 = 0
 tail_req_4: - b4 + t4_5 + t4_3 >= 0
 head_hidden_5: a0 - h5_0 = 0
 rdr_addr_5: b5 - h5_0 = 0
 tail_sync_5_0: - a0 + t5_0 = 0
 tail_sync_5_1: - a1 + t5_1 = 0
 tail_sync_5_4: - a4 + t5_4 = 0
 tail_req_5: - b5 + t5_1 + t5_4 >= 0
 head_hidden_6: a0 - h6_0 = 0
 rdr_addr_6: b6 - h6_0 = 0
 tail_sync_6_0: - a0 + t6_0 = 0
 tail_sync_6_7: - a7 + t6_7 = 0
 tail_req_6: - b6 + t6_7 >= 0
 head_hidden_7: a0 - h7_0 = 0
 rdr_addr_7: b7 - h7_0 = 0
 tail_sync_7_0: - a0 + t7_0 = 0
 tail_sync_7_5: - a5 + t7_5 = 0
 tail_sync_7_6: - a6 + t7_6 = 0
 tail_req_7: - b7 + t7_5 + t7_6 >= 0
 head_hidden_8: a0 - h8_0 = 0
 rdr_addr_8: b8 - h8_0 = 0
 tail_sync_8_0: - a0 + t8_0 = 0
 tail_sync_8_2: - a2 + t8_2 = 0
 tail_sync_8_5: - a5 + t8_5 = 0
 tail_req_8: - b8 + t8_2 + t8_5 >= 0
 head_hidden_8: a1 - h8_1 = 0
 rdr_addr_8: b0 - h8_1 = 0
 tail_sync_8_0: - a0 + t8_0 = 0
 tail_sync_8_1: - a1 + t8_1 = 0
 tail_sync_8_2: - a2 + t8_2 = 0
 tail_req_8: - b0 + t8_0 + t8_2 >= 0
 head_hidden_8: a1 - h8_1 = 0
 rdr_addr_8: b1 - h8_1 = 0
 tail_sync_8_0: - a0 + t8_0 = 0
 tail_sync_8_1: - a1 + t8_1 = 0
 tail_sync_8_3: - a3 + t8_3 = 0
 tail_req_8: - b1 + t8_0 + t8_3 >= 0
 head_hidden_9: a1 - h9_1 = 0
 rdr_addr_9: b9 - h9_1 = 0
 tail_sync_9_8: - a8 + t9_8 = 0
 tail_sync_9_1: - a1 + t9_1 = 0
 tail_sync_9_5: - a5 + t9_5 = 0
 tail_req_9: - b9 + t9_8 + t9_5 >= 0
 head_hidden_10: a1 - h10_1 = 0
 rdr_addr_10: b10 - h10_1 = 0
 tail_sync_10_1: - a1 + t10_1 = 0
 tail_sync_10_3: - a3 + t10_3 = 0
 tail_req_10: - b10 + t10_3 >= 0
 head_hidden_11: a1 - h11_1 = 0
 rdr_addr_11: b11 - h11_1 = 0
 tail_sync_11_1: - a1 + t11_1 = 0
 tail_sync_11_5: - a5 + t11_5 = 0
 tail_sync_11_6: - a6 + t11_6 = 0
 tail_req_11: - b11 + t11_5 + t11_6 >= 0
 head_hidden_12: a1 - h12_1 = 0
 rdr_addr_12: b12 - h12_1 = 0
 tail_sync_12_1: - a1 + t12_1 = 0
 tail_sync_12_6: - a6 + t12_6 = 0
 tail_req_12: - b12 + t12_6 >= 0
 head_hidden_13: a1 - h13_1 = 0
 rdr_addr_13: b13 - h13_1 = 0
 tail_sync_13_8: - a8 + t13_8 = 0
 tail_sync_13_1: - a1 + t13_1 = 0
 tail_req_13: - b13 + t13_8 >= 0
 head_hidden_14: a1 - h14_1 = 0
 rdr_addr_14: b14 - h14_1 = 0
 tail_sync_14_1: - a1 + t14_1 = 0
 tail_sync_14_5: - a5 + t14_5 = 0
 tail_req_14: - b14 + t14_5 >= 0
 head_hidden_15: a1 - h15_1 = 0
 rdr_addr_15: b15 - h15_1 = 0
 tail_sync_15_9: - a9 + t15_9 = 0
 tail_sync_15_1: - a1 + t15_1 = 0
 tail_sync_15_5: - a5 + t15_5 = 0
 tail_req_15: - b15 + t15_9 + t15_5 >= 0
 head_hidden_15: a1 - h15_1 = 0
 rdr_addr_15: b3 - h15_1 = 0
 tail_sync_15_0: - a0 + t15_0 = 0
 tail_sync_15_1: - a1 + t15_1 = 0
 tail_sync_15_6: - a6 + t15_6 = 0
 tail_req_15: - b3 + t15_0 + t15_6 >= 0
 head_hidden_16: a1 - h16_1 = 0
 rdr_addr_16: b16 - h16_1 = 0
 tail_sync_16_1: - a1 + t16_1 = 0
 tail_sync_16_6: - a6 + t16_6 = 0
 tail_sync_16_10: - a10 + t16_10 = 0
 tail_req_16: - b16 + t16_6 + t16_10 >= 0
 head_hidden_17: a1 - h17_1 = 0
 rdr_addr_17: b17 - h17_1 = 0
 tail_sync_17_2: - a2 + t17_2 = 0
 tail_sync_17_1: - a1 + t17_1 = 0
 tail_sync_17_5: - a5 + t17_5 = 0
 tail_req_17: - b17 + t17_2 + t17_5 >= 0
 head_hidden_18: a1 - h18_1 = 0
 rdr_addr_18: b18 - h18_1 = 0
 tail_sync_18_1: - a1 + t18_1 = 0
 tail_sync_18_4: - a4 + t18_4 = 0
 tail_sync_18_5: - a5 + t18_5 = 0
 tail_req_18: - b18 + t18_4 + t18_5 >= 0
 head_hidden_19: a1 - h19_1 = 0
 rdr_addr_19: b19 - h19_1 = 0
 tail_sync_19_1: - a1 + t19_1 = 0
 tail_sync_19_4: - a4 + t19_4 = 0
 tail_req_19: - b19 + t19_4 >= 0
 head_hidden_20: a1 - h20_1 = 0
 rdr_addr_20: b20 - h20_1 = 0
 tail_sync_20_1: - a1 + t20_1 = 0
 tail_sync_20_3: - a3 + t20_3 = 0
 tail_sync_20_10: - a10 + t20_10 = 0
 tail_req_20: - b20 + t20_3 + t20_10 >= 0
 head_hidden_20: a1 - h20_1 = 0
 rdr_addr_20: b5 - h20_1 = 0
 tail_sync_20_0: - a0 + t20_0 = 0
 tail_sync_20_1: - a1 + t20_1 = 0
 tail_sync_20_4: - a4 + t20_4 = 0
 tail_req_20: - b5 + t20_0 + t20_4 >= 0
 head_hidden_21: a1 - h21_1 = 0
 rdr_addr_21: b21 - h21_1 = 0
 tail_sync_21_11: - a11 + t21_11 = 0
 tail_sync_21_1: - a1 + t21_1 = 0
 tail_req_21: - b21 + t21_11 >= 0
 head_hidden_22: a1 - h22_1 = 0
 rdr_addr_22: b22 - h22_1 = 0
 tail_sync_22_2: - a2 + t22_2 = 0
 tail_sync_22_1: - a1 + t22_1 = 0
 tail_sync_22_10: - a10 + t22_10 = 0
 tail_req_22: - b22 + t22_2 + t22_10 >= 0
 head_hidden_23: a1 - h23_1 = 0
 rdr_addr_23: b23 - h23_1 = 0
 tail_sync_23_11: - a11 + t23_11 = 0
 tail_sync_23_1: - a1 + t23_1 = 0
 tail_sync_23_5: - a5 + t23_5 = 0
 tail_req_23: - b23 + t23_11 + t23_5 >= 0
 head_hidden_24: a1 - h24_1 = 0
 rdr_addr_24: b24 - h24_1 = 0
 tail_sync_24_1: - a1 + t24_1 = 0
 tail_sync_24_4: - a4 + t24_4 = 0
 tail_sync_24_10: - a10 + t24_10 = 0
 tail_req_24: - b24 + t24_4 + t24_10 >= 0
 head_hidden_25: a1 - h25_1 = 0
 rdr_addr_25: b25 - h25_1 = 0
 tail_sync_25_9: - a9 + t25_9 = 0
 tail_sync_25_1: - a1 + t25_1 = 0
 tail_req_25: - b25 + t25_9 >= 0
 head_hidden_26: a1 - h26_1 = 0
 rdr_addr_26: b26 - h26_1 = 0
 tail_sync_26_1: - a1 + t26_1 = 0
 tail_sync_26_5: - a5 + t26_5 = 0
 tail_sync_26_3: - a3 + t26_3 = 0
 tail_req_26: - b26 + t26_5 + t26_3 >= 0
 head_hidden_27: a1 - h27_1 = 0
 rdr_addr_27: b27 - h27_1 = 0
 tail_sync_27_2: - a2 + t27_2 = 0
 tail_sync_27_1: - a1 + t27_1 = 0
 tail_req_27: - b27 + t27_2 >= 0
 head_hidden_27: a2 - h27_2 = 0
 rdr_addr_27: b0 - h27_2 = 0
 tail_sync_27_0: - a0 + t27_0 = 0
 tail_sync_27_1: - a1 + t27_1 = 0
 tail_sync_27_2: - a2 + t27_2 = 0
 tail_req_27: - b0 + t27_0 + t27_1 >= 0
 head_hidden_28: a2 - h28_2 = 0
 rdr_addr_28: b28 - h28_2 = 0
 tail_sync_28_2: - a2 + t28_2 = 0
 tail_sync_28_5: - a5 + t28_5 = 0
 tail_sync_28_10: - a10 + t28_10 = 0
 tail_req_28: - b28 + t28_5 + t28_10 >= 0
 head_hidden_29: a2 - h29_2 = 0
 rdr_addr_29: b29 - h29_2 = 0
 tail_sync_29_9: - a9 + t29_9 = 0
 tail_sync_29_2: - a2 + t29_2 = 0
 tail_req_29: - b29 + t29_9 >= 0
 head_hidden_30: a2 - h30_2 = 0
 rdr_addr_30: b30 - h30_2 = 0
 tail_sync_30_11: - a11 + t30_11 = 0
 tail_sync_30_2: - a2 + t30_2 = 0
 tail_req_30: - b30 + t30_11 >= 0
 head_hidden_31: a2 - h31_2 = 0
 rdr_addr_31: b31 - h31_2 = 0
 tail_sync_31_2: - a2 + t31_2 = 0
 tail_sync_31_4: - a4 + t31_4 = 0
 tail_req_31: - b31 + t31_4 >= 0
 head_hidden_32: a2 - h32_2 = 0
 rdr_addr_32: b32 - h32_2 = 0
 tail_sync_32_2: - a2 + t32_2 = 0
 tail_sync_32_6: - a6 + t32_6 = 0
 tail_req_32: - b32 + t32_6 >= 0
 head_hidden_32: a2 - h32_2 = 0
 rdr_addr_32: b17 - h32_2 = 0
 tail_sync_32_2: - a2 + t32_2 = 0
 tail_sync_32_1: - a1 + t32_1 = 0
 tail_sync_32_5: - a5 + t32_5 = 0
 tail_req_32: - b17 + t32_1 + t32_5 >= 0
 head_hidden_33: a2 - h33_2 = 0
 rdr_addr_33: b33 - h33_2 = 0
 tail_sync_33_9: - a9 + t33_9 = 0
 tail_sync_33_2: - a2 + t33_2 = 0
 tail_sync_33_12: - a12 + t33_12 = 0
 tail_req_33: - b33 + t33_9 + t33_12 >= 0
 head_hidden_34: a2 - h34_2 = 0
 rdr_addr_34: b34 - h34_2 = 0
 tail_sync_34_2: - a2 + t34_2 = 0
 tail_sync_34_5: - a5 + t34_5 = 0
 tail_req_34: - b34 + t34_5 >= 0
 head_hidden_35: a2 - h35_2 = 0
 rdr_addr_35: b35 - h35_2 = 0
 tail_sync_35_9: - a9 + t35_9 = 0
 tail_sync_35_2: - a2 + t35_2 = 0
 tail_sync_35_10: - a10 + t35_10 = 0
 tail_req_35: - b35 + t35_9 + t35_10 >= 0
 head_hidden_35: a2 - h35_2 = 0
 rdr_addr_35: b22 - h35_2 = 0
 tail_sync_35_2: - a2 + t35_2 = 0
 tail_sync_35_1: - a1 + t35_1 = 0
 tail_sync_35_10: - a10 + t35_10 = 0
 tail_req_35: - b22 + t35_1 + t35_10 >= 0
 head_hidden_36: a2 - h36_2 = 0
 rdr_addr_36: b36 - h36_2 = 0
 tail_sync_36_8: - a8 + t36_8 = 0
 tail_sync_36_2: - a2 + t36_2 = 0
 tail_req_36: - b36 + t36_8 >= 0
 head_hidden_37: a2 - h37_2 = 0
 rdr_addr_37: b37 - h37_2 = 0
 tail_sync_37_2: - a2 + t37_2 = 0
 tail_sync_37_3: - a3 + t37_3 = 0
 tail_req_37: - b37 + t37_3 >= 0
 head_hidden_37: a2 - h37_2 = 0
 rdr_addr_37: b27 - h37_2 = 0
 tail_sync_37_2: - a2 + t37_2 = 0
 tail_sync_37_1: - a1 + t37_1 = 0
 tail_req_37: - b27 + t37_1 >= 0
 head_hidden_37: a2 - h37_2 = 0
 rdr_addr_37: b8 - h37_2 = 0
 tail_sync_37_0: - a0 + t37_0 = 0
 tail_sync_37_2: - a2 + t37_2 = 0
 tail_sync_37_5: - a5 + t37_5 = 0
 tail_req_37: - b8 + t37_0 + t37_5 >= 0
 head_hidden_37: a3 - h37_3 = 0
 rdr_addr_37: b1 - h37_3 = 0
 tail_sync_37_0: - a0 + t37_0 = 0
 tail_sync_37_1: - a1 + t37_1 = 0
 tail_sync_37_3: - a3 + t37_3 = 0
 tail_req_37: - b1 + t37_0 + t37_1 >= 0
 head_hidden_37: a3 - h37_3 = 0
 rdr_addr_37: b10 - h37_3 = 0
 tail_sync_37_1: - a1 + t37_1 = 0
 tail_sync_37_3: - a3 + t37_3 = 0
 tail_req_37: - b10 + t37_1 >= 0
 head_hidden_38: a3 - h38_3 = 0
 rdr_addr_38: b38 - h38_3 = 0
 tail_sync_38_9: - a9 + t38_9 = 0
 tail_sync_38_3: - a3 + t38_3 = 0
 tail_req_38: - b38 + t38_9 >= 0
 head_hidden_39: a3 - h39_3 = 0
 rdr_addr_39: b39 - h39_3 = 0
 tail_sync_39_4: - a4 + t39_4 = 0
 tail_sync_39_3: - a3 + t39_3 = 0
 tail_req_39: - b39 + t39_4 >= 0
 head_hidden_40: a3 - h40_3 = 0
 rdr_addr_40: b40 - h40_3 = 0
 tail_sync_40_5: - a5 + t40_5 = 0
 tail_sync_40_3: - a3 + t40_3 = 0
 tail_sync_40_10: - a10 + t40_10 = 0
 tail_req_40: - b40 + t40_5 + t40_10 >= 0
 head_hidden_41: a3 - h41_3 = 0
 rdr_addr_41: b41 - h41_3 = 0
 tail_sync_41_5: - a5 + t41_5 = 0
 tail_sync_41_3: - a3 + t41_3 = 0
 tail_req_41: - b41 + t41_5 >= 0
 head_hidden_42: a3 - h42_3 = 0
 rdr_addr_42: b42 - h42_3 = 0
 tail_sync_42_9: - a9 + t42_9 = 0
 tail_sync_42_3: - a3 + t42_3 = 0
 tail_sync_42_10: - a10 + t42_10 = 0
 tail_req_42: - b42 + t42_9 + t42_10 >= 0
 head_hidden_43: a3 - h43_3 = 0
 rdr_addr_43: b43 - h43_3 = 0
 tail_sync_43_9: - a9 + t43_9 = 0
 tail_sync_43_3: - a3 + t43_3 = 0
 tail_sync_43_12: - a12 + t43_12 = 0
 tail_req_43: - b43 + t43_9 + t43_12 >= 0
 head_hidden_43: a3 - h43_3 = 0
 rdr_addr_43: b4 - h43_3 = 0
 tail_sync_43_0: - a0 + t43_0 = 0
 tail_sync_43_5: - a5 + t43_5 = 0
 tail_sync_43_3: - a3 + t43_3 = 0
 tail_req_43: - b4 + t43_0 + t43_5 >= 0
 head_hidden_43: a3 - h43_3 = 0
 rdr_addr_43: b20 - h43_3 = 0
 tail_sync_43_1: - a1 + t43_1 = 0
 tail_sync_43_3: - a3 + t43_3 = 0
 tail_sync_43_10: - a10 + t43_10 = 0
 tail_req_43: - b20 + t43_1 + t43_10 >= 0
 head_hidden_44: a3 - h44_3 = 0
 rdr_addr_44: b44 - h44_3 = 0
 tail_sync_44_8: - a8 + t44_8 = 0
 tail_sync_44_3: - a3 + t44_3 = 0
 tail_req_44: - b44 + t44_8 >= 0
 head_hidden_44: a3 - h44_3 = 0
 rdr_addr_44: b37 - h44_3 = 0
 tail_sync_44_2: - a2 + t44_2 = 0
 tail_sync_44_3: - a3 + t44_3 = 0
 tail_req_44: - b37 + t44_2 >= 0
 head_hidden_45: a3 - h45_3 = 0
 rdr_addr_45: b45 - h45_3 = 0
 tail_sync_45_6: - a6 + t45_6 = 0
 tail_sync_45_3: - a3 + t45_3 = 0
 tail_req_45: - b45 + t45_6 >= 0
 head_hidden_45: a3 - h45_3 = 0
 rdr_addr_45: b26 - h45_3 = 0
 tail_sync_45_1: - a1 + t45_1 = 0
 tail_sync_45_5: - a5 + t45_5 = 0
 tail_sync_45_3: - a3 + t45_3 = 0
 tail_req_45: - b26 + t45_1 + t45_5 >= 0
 head_hidden_46: a3 - h46_3 = 0
 rdr_addr_46: b46 - h46_3 = 0
 tail_sync_46_11: - a11 + t46_11 = 0
 tail_sync_46_3: - a3 + t46_3 = 0
 tail_req_46: - b46 + t46_11 >= 0
 head_hidden_47: a4 - h47_4 = 0
 rdr_addr_47: b47 - h47_4 = 0
 tail_sync_47_4: - a4 + t47_4 = 0
 tail_sync_47_6: - a6 + t47_6 = 0
 tail_req_47: - b47 + t47_6 >= 0
 head_hidden_48: a4 - h48_4 = 0
 rdr_addr_48: b48 - h48_4 = 0
 tail_sync_48_8: - a8 + t48_8 = 0
 tail_sync_48_4: - a4 + t48_4 = 0
 tail_req_48: - b48 + t48_8 >= 0
 head_hidden_48: a4 - h48_4 = 0
 rdr_addr_48: b2 - h48_4 = 0
 tail_sync_48_0: - a0 + t48_0 = 0
 tail_sync_48_4: - a4 + t48_4 = 0
 tail_sync_48_5: - a5 + t48_5 = 0
 tail_req_48: - b2 + t48_0 + t48_5 >= 0
 head_hidden_48: a4 - h48_4 = 0
 rdr_addr_48: b39 - h48_4 = 0
 tail_sync_48_4: - a4 + t48_4 = 0
 tail_sync_48_3: - a3 + t48_3 = 0
 tail_req_48: - b39 + t48_3 >= 0
 head_hidden_48: a4 - h48_4 = 0
 rdr_addr_48: b31 - h48_4 = 0
 tail_sync_48_2: - a2 + t48_2 = 0
 tail_sync_48_4: - a4 + t48_4 = 0
 tail_req_48: - b31 + t48_2 >= 0
 head_hidden_49: a4 - h49_4 = 0
 rdr_addr_49: b49 - h49_4 = 0
 tail_sync_49_9: - a9 + t49_9 = 0
 tail_sync_49_4: - a4 + t49_4 = 0
 tail_sync_49_12: - a12 + t49_12 = 0
 tail_req_49: - b49 + t49_9 + t49_12 >= 0
 head_hidden_50: a4 - h50_4 = 0
 rdr_addr_50: b50 - h50_4 = 0
 tail_sync_50_11: - a11 + t50_11 = 0
 tail_sync_50_4: - a4 + t50_4 = 0
 tail_req_50: - b50 + t50_11 >= 0
 head_hidden_50: a4 - h50_4 = 0
 rdr_addr_50: b18 - h50_4 = 0
 tail_sync_50_1: - a1 + t50_1 = 0
 tail_sync_50_4: - a4 + t50_4 = 0
 tail_sync_50_5: - a5 + t50_5 = 0
 tail_req_50: - b18 + t50_1 + t50_5 >= 0
 head_hidden_50: a4 - h50_4 = 0
 rdr_addr_50: b19 - h50_4 = 0
 tail_sync_50_1: - a1 + t50_1 = 0
 tail_sync_50_4: - a4 + t50_4 = 0
 tail_req_50: - b19 + t50_1 >= 0
 head_hidden_50: a4 - h50_4 = 0
 rdr_addr_50: b5 - h50_4 = 0
 tail_sync_50_0: - a0 + t50_0 = 0
 tail_sync_50_1: - a1 + t50_1 = 0
 tail_sync_50_4: - a4 + t50_4 = 0
 tail_req_50: - b5 + t50_0 + t50_1 >= 0
 head_hidden_51: a4 - h51_4 = 0
 rdr_addr_51: b51 - h51_4 = 0
 tail_sync_51_4: - a4 + t51_4 = 0
 tail_sync_51_5: - a5 + t51_5 = 0
 tail_sync_51_10: - a10 + t51_10 = 0
 tail_req_51: - b51 + t51_5 + t51_10 >= 0
 head_hidden_52: a4 - h52_4 = 0
 rdr_addr_52: b52 - h52_4 = 0
 tail_sync_52_9: - a9 + t52_9 = 0
 tail_sync_52_4: - a4 + t52_4 = 0
 tail_req_52: - b52 + t52_9 >= 0
 head_hidden_52: a4 - h52_4 = 0
 rdr_addr_52: b24 - h52_4 = 0
 tail_sync_52_1: - a1 + t52_1 = 0
 tail_sync_52_4: - a4 + t52_4 = 0
 tail_sync_52_10: - a10 + t52_10 = 0
 tail_req_52: - b24 + t52_1 + t52_10 >= 0
 head_hidden_53: a4 - h53_4 = 0
 rdr_addr_53: b53 - h53_4 = 0
 tail_sync_53_4: - a4 + t53_4 = 0
 tail_sync_53_5: - a5 + t53_5 = 0
 tail_req_53: - b53 + t53_5 >= 0
 head_hidden_54: a4 - h54_4 = 0
 rdr_addr_54: b54 - h54_4 = 0
 tail_sync_54_9: - a9 + t54_9 = 0
 tail_sync_54_4: - a4 + t54_4 = 0
 tail_sync_54_10: - a10 + t54_10 = 0
 tail_req_54: - b54 + t54_9 + t54_10 >= 0
 head_hidden_54: a5 - h54_5 = 0
 rdr_addr_54: b28 - h54_5 = 0
 tail_sync_54_2: - a2 + t54_2 = 0
 tail_sync_54_5: - a5 + t54_5 = 0
 tail_sync_54_10: - a10 + t54_10 = 0
 tail_req_54: - b28 + t54_2 + t54_10 >= 0
 head_hidden_54: a5 - h54_5 = 0
 rdr_addr_54: b9 - h54_5 = 0
 tail_sync_54_8: - a8 + t54_8 = 0
 tail_sync_54_1: - a1 + t54_1 = 0
 tail_sync_54_5: - a5 + t54_5 = 0
 tail_req_54: - b9 + t54_8 + t54_1 >= 0
 head_hidden_54: a5 - h54_5 = 0
 rdr_addr_54: b11 - h54_5 = 0
 tail_sync_54_1: - a1 + t54_1 = 0
 tail_sync_54_5: - a5 + t54_5 = 0
 tail_sync_54_6: - a6 + t54_6 = 0
 tail_req_54: - b11 + t54_1 + t54_6 >= 0
 head_hidden_54: a5 - h54_5 = 0
 rdr_addr_54: b2 - h54_5 = 0
 tail_sync_54_0: - a0 + t54_0 = 0
 tail_sync_54_4: - a4 + t54_4 = 0
 tail_sync_54_5: - a5 + t54_5 = 0
 tail_req_54: - b2 + t54_0 + t54_4 >= 0
 head_hidden_54: a5 - h54_5 = 0
 rdr_addr_54: b40 - h54_5 = 0
 tail_sync_54_5: - a5 + t54_5 = 0
 tail_sync_54_3: - a3 + t54_3 = 0
 tail_sync_54_10: - a10 + t54_10 = 0
 tail_req_54: - b40 + t54_3 + t54_10 >= 0
 head_hidden_54: a5 - h54_5 = 0
 rdr_addr_54: b14 - h54_5 = 0
 tail_sync_54_1: - a1 + t54_1 = 0
 tail_sync_54_5: - a5 + t54_5 = 0
 tail_req_54: - b14 + t54_1 >= 0
 head_hidden_54: a5 - h54_5 = 0
 rdr_addr_54: b15 - h54_5 = 0
 tail_sync_54_9: - a9 + t54_9 = 0
 tail_sync_54_1: - a1 + t54_1 = 0
 tail_sync_54_5: - a5 + t54_5 = 0
 tail_req_54: - b15 + t54_9 + t54_1 >= 0
 head_hidden_54: a5 - h54_5 = 0
 rdr_addr_54: b17 - h54_5 = 0
 tail_sync_54_2: - a2 + t54_2 = 0
 tail_sync_54_1: - a1 + t54_1 = 0
 tail_sync_54_5: - a5 + t54_5 = 0
 tail_req_54: - b17 + t54_2 + t54_1 >= 0
 head_hidden_54: a5 - h54_5 = 0
 rdr_addr_54: b41 - h54_5 = 0
 tail_sync_54_5: - a5 + t54_5 = 0
 tail_sync_54_3: - a3 + t54_3 = 0
 tail_req_54: - b41 + t54_3 >= 0
 head_hidden_54: a5 - h54_5 = 0
 rdr_addr_54: b4 - h54_5 = 0
 tail_sync_54_0: - a0 + t54_0 = 0
 tail_sync_54_5: - a5 + t54_5 = 0
 tail_sync_54_3: - a3 + t54_3 = 0
 tail_req_54: - b4 + t54_0 + t54_3 >= 0
 head_hidden_54: a5 - h54_5 = 0
 rdr_addr_54: b18 - h54_5 = 0
 tail_sync_54_1: - a1 + t54_1 = 0
 tail_sync_54_4: - a4 + t54_4 = 0
 tail_sync_54_5: - a5 + t54_5 = 0
 tail_req_54: - b18 + t54_1 + t54_4 >= 0
 head_hidden_54: a5 - h54_5 = 0
 rdr_addr_54: b34 - h54_5 = 0
 tail_sync_54_2: - a2 + t54_2 = 0
 tail_sync_54_5: - a5 + t54_5 = 0
 tail_req_54: - b34 + t54_2 >= 0
 head_hidden_55: a5 - h55_5 = 0
 rdr_addr_55: b55 - h55_5 = 0
 tail_sync_55_9: - a9 + t55_9 = 0
 tail_sync_55_5: - a5 + t55_5 = 0
 tail_req_55: - b55 + t55_9 >= 0
 head_hidden_55: a5 - h55_5 = 0
 rdr_addr_55: b51 - h55_5 = 0
 tail_sync_55_4: - a4 + t55_4 = 0
 tail_sync_55_5: - a5 + t55_5 = 0
 tail_sync_55_10: - a10 + t55_10 = 0
 tail_req_55: - b51 + t55_4 + t55_10 >= 0
 head_hidden_56: a5 - h56_5 = 0
 rdr_addr_56: b56 - h56_5 = 0
 tail_sync_56_11: - a11 + t56_11 = 0
 tail_sync_56_5: - a5 + t56_5 = 0
 tail_req_56: - b56 + t56_11 >= 0
 head_hidden_56: a5 - h56_5 = 0
 rdr_addr_56: b23 - h56_5 = 0
 tail_sync_56_11: - a11 + t56_11 = 0
 tail_sync_56_1: - a1 + t56_1 = 0
 tail_sync_56_5: - a5 + t56_5 = 0
 tail_req_56: - b23 + t56_11 + t56_1 >= 0
 head_hidden_57: a5 - h57_5 = 0
 rdr_addr_57: b57 - h57_5 = 0
 tail_sync_57_5: - a5 + t57_5 = 0
 tail_sync_57_6: - a6 + t57_6 = 0
 tail_req_57: - b57 + t57_6 >= 0
 head_hidden_58: a5 - h58_5 = 0
 rdr_addr_58: b58 - h58_5 = 0
 tail_sync_58_8: - a8 + t58_8 = 0
 tail_sync_58_5: - a5 + t58_5 = 0
 tail_req_58: - b58 + t58_8 >= 0
 head_hidden_58: a5 - h58_5 = 0
 rdr_addr_58: b26 - h58_5 = 0
 tail_sync_58_1: - a1 + t58_1 = 0
 tail_sync_58_5: - a5 + t58_5 = 0
 tail_sync_58_3: - a3 + t58_3 = 0
 tail_req_58: - b26 + t58_1 + t58_3 >= 0
 head_hidden_58: a5 - h58_5 = 0
 rdr_addr_58: b53 - h58_5 = 0
 tail_sync_58_4: - a4 + t58_4 = 0
 tail_sync_58_5: - a5 + t58_5 = 0
 tail_req_58: - b53 + t58_4 >= 0
 head_hidden_58: a5 - h58_5 = 0
 rdr_addr_58: b7 - h58_5 = 0
 tail_sync_58_0: - a0 + t58_0 = 0
 tail_sync_58_5: - a5 + t58_5 = 0
 tail_sync_58_6: - a6 + t58_6 = 0
 tail_req_58: - b7 + t58_0 + t58_6 >= 0
 head_hidden_59: a5 - h59_5 = 0
 rdr_addr_59: b59 - h59_5 = 0
 tail_sync_59_5: - a5 + t59_5 = 0
 tail_sync_59_6: - a6 + t59_6 = 0
 tail_sync_59_10: - a10 + t59_10 = 0
 tail_req_59: - b59 + t59_6 + t59_10 >= 0
 head_hidden_59: a5 - h59_5 = 0
 rdr_addr_59: b8 - h59_5 = 0
 tail_sync_59_0: - a0 + t59_0 = 0
 tail_sync_59_2: - a2 + t59_2 = 0
 tail_sync_59_5: - a5 + t59_5 = 0
 tail_req_59: - b8 + t59_0 + t59_2 >= 0
 head_hidden_59: a6 - h59_6 = 0
 rdr_addr_59: b47 - h59_6 = 0
 tail_sync_59_4: - a4 + t59_4 = 0
 tail_sync_59_6: - a6 + t59_6 = 0
 tail_req_59: - b47 + t59_4 >= 0
 head_hidden_59: a6 - h59_6 = 0
 rdr_addr_59: b11 - h59_6 = 0
 tail_sync_59_1: - a1 + t59_1 = 0
 tail_sync_59_5: - a5 + t59_5 = 0
 tail_sync_59_6: - a6 + t59_6 = 0
 tail_req_59: - b11 + t59_1 + t59_5 >= 0
 head_hidden_59: a6 - h59_6 = 0
 rdr_addr_59: b12 - h59_6 = 0
 tail_sync_59_1: - a1 + t59_1 = 0
 tail_sync_59_6: - a6 + t59_6 = 0
 tail_req_59: - b12 + t59_1 >= 0
 head_hidden_60: a6 - h60_6 = 0
 rdr_addr_60: b60 - h60_6 = 0
 tail_sync_60_11: - a11 + t60_11 = 0
 tail_sync_60_6: - a6 + t60_6 = 0
 tail_req_60: - b60 + t60_11 >= 0
 head_hidden_60: a6 - h60_6 = 0
 rdr_addr_60: b3 - h60_6 = 0
 tail_sync_60_0: - a0 + t60_0 = 0
 tail_sync_60_1: - a1 + t60_1 = 0
 tail_sync_60_6: - a6 + t60_6 = 0
 tail_req_60: - b3 + t60_0 + t60_1 >= 0
 head_hidden_61: a6 - h61_6 = 0
 rdr_addr_61: b61 - h61_6 = 0
 tail_sync_61_9: - a9 + t61_9 = 0
 tail_sync_61_6: - a6 + t61_6 = 0
 tail_sync_61_12: - a12 + t61_12 = 0
 tail_req_61: - b61 + t61_9 + t61_12 >= 0
 head_hidden_61: a6 - h61_6 = 0
 rdr_addr_61: b16 - h61_6 = 0
 tail_sync_61_1: - a1 + t61_1 = 0
 tail_sync_61_6: - a6 + t61_6 = 0
 tail_sync_61_10: - a10 + t61_10 = 0
 tail_req_61: - b16 + t61_1 + t61_10 >= 0
 head_hidden_62: a6 - h62_6 = 0
 rdr_addr_62: b62 - h62_6 = 0
 tail_sync_62_9: - a9 + t62_9 = 0
 tail_sync_62_6: - a6 + t62_6 = 0
 tail_req_62: - b62 + t62_9 >= 0
 head_hidden_62: a6 - h62_6 = 0
 rdr_addr_62: b32 - h62_6 = 0
 tail_sync_62_2: - a2 + t62_2 = 0
 tail_sync_62_6: - a6 + t62_6 = 0
 tail_req_62: - b32 + t62_2 >= 0
 head_hidden_63: a6 - h63_6 = 0
 rdr_addr_63: b63 - h63_6 = 0
 tail_sync_63_8: - a8 + t63_8 = 0
 tail_sync_63_6: - a6 + t63_6 = 0
 tail_req_63: - b63 + t63_8 >= 0
 head_hidden_64: a6 - h64_6 = 0
 rdr_addr_64: b64 - h64_6 = 0
 tail_sync_64_9: - a9 + t64_9 = 0
 tail_sync_64_6: - a6 + t64_6 = 0
 tail_sync_64_10: - a10 + t64_10 = 0
 tail_req_64: - b64 + t64_9 + t64_10 >= 0
 head_hidden_64: a6 - h64_6 = 0
 rdr_addr_64: b57 - h64_6 = 0
 tail_sync_64_5: - a5 + t64_5 = 0
 tail_sync_64_6: - a6 + t64_6 = 0
 tail_req_64: - b57 + t64_5 >= 0
 head_hidden_64: a6 - h64_6 = 0
 rdr_addr_64: b45 - h64_6 = 0
 tail_sync_64_6: - a6 + t64_6 = 0
 tail_sync_64_3: - a3 + t64_3 = 0
 tail_req_64: - b45 + t64_3 >= 0
 head_hidden_64: a6 - h64_6 = 0
 rdr_addr_64: b7 - h64_6 = 0
 tail_sync_64_0: - a0 + t64_0 = 0
 tail_sync_64_5: - a5 + t64_5 = 0
 tail_sync_64_6: - a6 + t64_6 = 0
 tail_req_64: - b7 + t64_0 + t64_5 >= 0
 head_hidden_64: a6 - h64_6 = 0
 rdr_addr_64: b59 - h64_6 = 0
 tail_sync_64_5: - a5 + t64_5 = 0
 tail_sync_64_6: - a6 + t64_6 = 0
 tail_sync_64_10: - a10 + t64_10 = 0
 tail_req_64: - b59 + t64_5 + t64_10 >= 0
 head_hidden_64: a7 - h64_7 = 0
 rdr_addr_64: b6 - h64_7 = 0
 tail_sync_64_0: - a0 + t64_0 = 0
 tail_sync_64_7: - a7 + t64_7 = 0
 tail_req_64: - b6 + t64_0 >= 0
 head_hidden_64: a8 - h64_8 = 0
 rdr_addr_64: b9 - h64_8 = 0
 tail_sync_64_8: - a8 + t64_8 = 0
 tail_sync_64_1: - a1 + t64_1 = 0
 tail_sync_64_5: - a5 + t64_5 = 0
 tail_req_64: - b9 + t64_1 + t64_5 >= 0
 head_hidden_64: a8 - h64_8 = 0
 rdr_addr_64: b48 - h64_8 = 0
 tail_sync_64_8: - a8 + t64_8 = 0
 tail_sync_64_4: - a4 + t64_4 = 0
 tail_req_64: - b48 + t64_4 >= 0
 head_hidden_64: a8 - h64_8 = 0
 rdr_addr_64: b13 - h64_8 = 0
 tail_sync_64_8: - a8 + t64_8 = 0
 tail_sync_64_1: - a1 + t64_1 = 0
 tail_req_64: - b13 + t64_1 >= 0
 head_hidden_65: a8 - h65_8 = 0
 rdr_addr_65: b65 - h65_8 = 0
 tail_sync_65_11: - a11 + t65_11 = 0
 tail_sync_65_8: - a8 + t65_8 = 0
 tail_req_65: - b65 + t65_11 >= 0
 head_hidden_65: a8 - h65_8 = 0
 rdr_addr_65: b44 - h65_8 = 0
 tail_sync_65_8: - a8 + t65_8 = 0
 tail_sync_65_3: - a3 + t65_3 = 0
 tail_req_65: - b44 + t65_3 >= 0
 head_hidden_65: a8 - h65_8 = 0
 rdr_addr_65: b63 - h65_8 = 0
 tail_sync_65_8: - a8 + t65_8 = 0
 tail_sync_65_6: - a6 + t65_6 = 0
 tail_req_65: - b63 + t65_6 >= 0
 head_hidden_65: a8 - h65_8 = 0
 rdr_addr_65: b36 - h65_8 = 0
 tail_sync_65_8: - a8 + t65_8 = 0
 tail_sync_65_2: - a2 + t65_2 = 0
 tail_req_65: - b36 + t65_2 >= 0
 head_hidden_66: a8 - h66_8 = 0
 rdr_addr_66: b66 - h66_8 = 0
 tail_sync_66_9: - a9 + t66_9 = 0
 tail_sync_66_8: - a8 + t66_8 = 0
 tail_req_66: - b66 + t66_9 >= 0
 head_hidden_66: a8 - h66_8 = 0
 rdr_addr_66: b58 - h66_8 = 0
 tail_sync_66_8: - a8 + t66_8 = 0
 tail_sync_66_5: - a5 + t66_5 = 0
 tail_req_66: - b58 + t66_5 >= 0
 head_hidden_66: a9 - h66_9 = 0
 rdr_addr_66: b29 - h66_9 = 0
 tail_sync_66_9: - a9 + t66_9 = 0
 tail_sync_66_2: - a2 + t66_2 = 0
 tail_req_66: - b29 + t66_2 >= 0
 head_hidden_66: a9 - h66_9 = 0
 rdr_addr_66: b38 - h66_9 = 0
 tail_sync_66_9: - a9 + t66_9 = 0
 tail_sync_66_3: - a3 + t66_3 = 0
 tail_req_66: - b38 + t66_3 >= 0
 head_hidden_66: a9 - h66_9 = 0
 rdr_addr_66: b15 - h66_9 = 0
 tail_sync_66_9: - a9 + t66_9 = 0
 tail_sync_66_1: - a1 + t66_1 = 0
 tail_sync_66_5: - a5 + t66_5 = 0
 tail_req_66: - b15 + t66_1 + t66_5 >= 0
 head_hidden_66: a9 - h66_9 = 0
 rdr_addr_66: b61 - h66_9 = 0
 tail_sync_66_9: - a9 + t66_9 = 0
 tail_sync_66_6: - a6 + t66_6 = 0
 tail_sync_66_12: - a12 + t66_12 = 0
 tail_req_66: - b61 + t66_6 + t66_12 >= 0
 head_hidden_66: a9 - h66_9 = 0
 rdr_addr_66: b62 - h66_9 = 0
 tail_sync_66_9: - a9 + t66_9 = 0
 tail_sync_66_6: - a6 + t66_6 = 0
 tail_req_66: - b62 + t66_6 >= 0
 head_hidden_66: a9 - h66_9 = 0
 rdr_addr_66: b49 - h66_9 = 0
 tail_sync_66_9: - a9 + t66_9 = 0
 tail_sync_66_4: - a4 + t66_4 = 0
 tail_sync_66_12: - a12 + t66_12 = 0
 tail_req_66: - b49 + t66_4 + t66_12 >= 0
 head_hidden_67: a9 - h67_9 = 0
 rdr_addr_67: b67 - h67_9 = 0
 tail_sync_67_11: - a11 + t67_11 = 0
 tail_sync_67_9: - a9 + t67_9 = 0
 tail_req_67: - b67 + t67_11 >= 0
 head_hidden_67: a9 - h67_9 = 0
 rdr_addr_67: b42 - h67_9 = 0
 tail_sync_67_9: - a9 + t67_9 = 0
 tail_sync_67_3: - a3 + t67_3 = 0
 tail_sync_67_10: - a10 + t67_10 = 0
 tail_req_67: - b42 + t67_3 + t67_10 >= 0
 head_hidden_67: a9 - h67_9 = 0
 rdr_addr_67: b43 - h67_9 = 0
 tail_sync_67_9: - a9 + t67_9 = 0
 tail_sync_67_3: - a3 + t67_3 = 0
 tail_sync_67_12: - a12 + t67_12 = 0
 tail_req_67: - b43 + t67_3 + t67_12 >= 0
 head_hidden_67: a9 - h67_9 = 0
 rdr_addr_67: b33 - h67_9 = 0
 tail_sync_67_9: - a9 + t67_9 = 0
 tail_sync_67_2: - a2 + t67_2 = 0
 tail_sync_67_12: - a12 + t67_12 = 0
 tail_req_67: - b33 + t67_2 + t67_12 >= 0
 head_hidden_67: a9 - h67_9 = 0
 rdr_addr_67: b55 - h67_9 = 0
 tail_sync_67_9: - a9 + t67_9 = 0
 tail_sync_67_5: - a5 + t67_5 = 0
 tail_req_67: - b55 + t67_5 >= 0
 head_hidden_67: a9 - h67_9 = 0
 rdr_addr_67: b35 - h67_9 = 0
 tail_sync_67_9: - a9 + t67_9 = 0
 tail_sync_67_2: - a2 + t67_2 = 0
 tail_sync_67_10: - a10 + t67_10 = 0
 tail_req_67: - b35 + t67_2 + t67_10 >= 0
 head_hidden_67: a9 - h67_9 = 0
 rdr_addr_67: b52 - h67_9 = 0
 tail_sync_67_9: - a9 + t67_9 = 0
 tail_sync_67_4: - a4 + t67_4 = 0
 tail_req_67: - b52 + t67_4 >= 0
 head_hidden_67: a9 - h67_9 = 0
 rdr_addr_67: b64 - h67_9 = 0
 tail_sync_67_9: - a9 + t67_9 = 0
 tail_sync_67_6: - a6 + t67_6 = 0
 tail_sync_67_10: - a10 + t67_10 = 0
 tail_req_67: - b64 + t67_6 + t67_10 >= 0
 head_hidden_67: a9 - h67_9 = 0
 rdr_addr_67: b66 - h67_9 = 0
 tail_sync_67_9: - a9 + t67_9 = 0
 tail_sync_67_8: - a8 + t67_8 = 0
 tail_req_67: - b66 + t67_8 >= 0
 head_hidden_67: a9 - h67_9 = 0
 rdr_addr_67: b25 - h67_9 = 0
 tail_sync_67_9: - a9 + t67_9 = 0
 tail_sync_67_1: - a1 + t67_1 = 0
 tail_req_67: - b25 + t67_1 >= 0
 head_hidden_67: a9 - h67_9 = 0
 rdr_addr_67: b54 - h67_9 = 0
 tail_sync_67_9: - a9 + t67_9 = 0
 tail_sync_67_4: - a4 + t67_4 = 0
 tail_sync_67_10: - a10 + t67_10 = 0
 tail_req_67: - b54 + t67_4 + t67_10 >= 0
 head_hidden_67: a10 - h67_10 = 0
 rdr_addr_67: b28 - h67_10 = 0
 tail_sync_67_2: - a2 + t67_2 = 0
 tail_sync_67_5: - a5 + t67_5 = 0
 tail_sync_67_10: - a10 + t67_10 = 0
 tail_req_67: - b28 + t67_2 + t67_5 >= 0
 head_hidden_67: a10 - h67_10 = 0
 rdr_addr_67: b40 - h67_10 = 0
 tail_sync_67_5: - a5 + t67_5 = 0
 tail_sync_67_3: - a3 + t67_3 = 0
 tail_sync_67_10: - a10 + t67_10 = 0
 tail_req_67: - b40 + t67_5 + t67_3 >= 0
 head_hidden_67: a10 - h67_10 = 0
 rdr_addr_67: b16 - h67_10 = 0
 tail_sync_67_1: - a1 + t67_1 = 0
 tail_sync_67_6: - a6 + t67_6 = 0
 tail_sync_67_10: - a10 + t67_10 = 0
 tail_req_67: - b16 + t67_1 + t67_6 >= 0
 head_hidden_67: a10 - h67_10 = 0
 rdr_addr_67: b42 - h67_10 = 0
 tail_sync_67_9: - a9 + t67_9 = 0
 tail_sync_67_3: - a3 + t67_3 = 0
 tail_sync_67_10: - a10 + t67_10 = 0
 tail_req_67: - b42 + t67_9 + t67_3 >= 0
 head_hidden_67: a10 - h67_10 = 0
 rdr_addr_67: b20 - h67_10 = 0
 tail_sync_67_1: - a1 + t67_1 = 0
 tail_sync_67_3: - a3 + t67_3 = 0
 tail_sync_67_10: - a10 + t67_10 = 0
 tail_req_67: - b20 + t67_1 + t67_3 >= 0
 head_hidden_67: a10 - h67_10 = 0
 rdr_addr_67: b35 - h67_10 = 0
 tail_sync_67_9: - a9 + t67_9 = 0
 tail_sync_67_2: - a2 + t67_2 = 0
 tail_sync_67_10: - a10 + t67_10 = 0
 tail_req_67: - b35 + t67_9 + t67_2 >= 0
 head_hidden_67: a10 - h67_10 = 0
 rdr_addr_67: b51 - h67_10 = 0
 tail_sync_67_4: - a4 + t67_4 = 0
 tail_sync_67_5: - a5 + t67_5 = 0
 tail_sync_67_10: - a10 + t67_10 = 0
 tail_req_67: - b51 + t67_4 + t67_5 >= 0
 head_hidden_67: a10 - h67_10 = 0
 rdr_addr_67: b64 - h67_10 = 0
 tail_sync_67_9: - a9 + t67_9 = 0
 tail_sync_67_6: - a6 + t67_6 = 0
 tail_sync_67_10: - a10 + t67_10 = 0
 tail_req_67: - b64 + t67_9 + t67_6 >= 0
 head_hidden_67: a10 - h67_10 = 0
 rdr_addr_67: b22 - h67_10 = 0
 tail_sync_67_2: - a2 + t67_2 = 0
 tail_sync_67_1: - a1 + t67_1 = 0
 tail_sync_67_10: - a10 + t67_10 = 0
 tail_req_67: - b22 + t67_2 + t67_1 >= 0
 head_hidden_68: a10 - h68_10 = 0
 rdr_addr_68: b68 - h68_10 = 0
 tail_sync_68_10: - a10 + t68_10 = 0
 tail_sync_68_12: - a12 + t68_12 = 0
 tail_req_68: - b68 + t68_12 >= 0
 head_hidden_68: a10 - h68_10 = 0
 rdr_addr_68: b24 - h68_10 = 0
 tail_sync_68_1: - a1 + t68_1 = 0
 tail_sync_68_4: - a4 + t68_4 = 0
 tail_sync_68_10: - a10 + t68_10 = 0
 tail_req_68: - b24 + t68_1 + t68_4 >= 0
 head_hidden_69: a10 - h69_10 = 0
 rdr_addr_69: b69 - h69_10 = 0
 tail_sync_69_13: - a13 + t69_13 = 0
 tail_sync_69_10: - a10 + t69_10 = 0
 tail_req_69: - b69 + t69_13 >= 0
 head_hidden_69: a10 - h69_10 = 0
 rdr_addr_69: b59 - h69_10 = 0
 tail_sync_69_5: - a5 + t69_5 = 0
 tail_sync_69_6: - a6 + t69_6 = 0
 tail_sync_69_10: - a10 + t69_10 = 0
 tail_req_69: - b59 + t69_5 + t69_6 >= 0
 head_hidden_69: a10 - h69_10 = 0
 rdr_addr_69: b54 - h69_10 = 0
 tail_sync_69_9: - a9 + t69_9 = 0
 tail_sync_69_4: - a4 + t69_4 = 0
 tail_sync_69_10: - a10 + t69_10 = 0
 tail_req_69: - b54 + t69_9 + t69_4 >= 0
 head_hidden_69: a11 - h69_11 = 0
 rdr_addr_69: b30 - h69_11 = 0
 tail_sync_69_11: - a11 + t69_11 = 0
 tail_sync_69_2: - a2 + t69_2 = 0
 tail_req_69: - b30 + t69_2 >= 0
 head_hidden_69: a11 - h69_11 = 0
 rdr_addr_69: b60 - h69_11 = 0
 tail_sync_69_11: - a11 + t69_11 = 0
 tail_sync_69_6: - a6 + t69_6 = 0
 tail_req_69: - b60 + t69_6 >= 0
 head_hidden_69: a11 - h69_11 = 0
 rdr_addr_69: b65 - h69_11 = 0
 tail_sync_69_11: - a11 + t69_11 = 0
 tail_sync_69_8: - a8 + t69_8 = 0
 tail_req_69: - b65 + t69_8 >= 0
 head_hidden_69: a11 - h69_11 = 0
 rdr_addr_69: b50 - h69_11 = 0
 tail_sync_69_11: - a11 + t69_11 = 0
 tail_sync_69_4: - a4 + t69_4 = 0
 tail_req_69: - b50 + t69_4 >= 0
 head_hidden_69: a11 - h69_11 = 0
 rdr_addr_69: b67 - h69_11 = 0
 tail_sync_69_11: - a11 + t69_11 = 0
 tail_sync_69_9: - a9 + t69_9 = 0
 tail_req_69: - b67 + t69_9 >= 0
 head_hidden_69: a11 - h69_11 = 0
 rdr_addr_69: b21 - h69_11 = 0
 tail_sync_69_11: - a11 + t69_11 = 0
 tail_sync_69_1: - a1 + t69_1 = 0
 tail_req_69: - b21 + t69_1 >= 0
 head_hidden_69: a11 - h69_11 = 0
 rdr_addr_69: b56 - h69_11 = 0
 tail_sync_69_11: - a11 + t69_11 = 0
 tail_sync_69_5: - a5 + t69_5 = 0
 tail_req_69: - b56 + t69_5 >= 0
 head_hidden_69: a11 - h69_11 = 0
 rdr_addr_69: b23 - h69_11 = 0
 tail_sync_69_11: - a11 + t69_11 = 0
 tail_sync_69_1: - a1 + t69_1 = 0
 tail_sync_69_5: - a5 + t69_5 = 0
 tail_req_69: - b23 + t69_1 + t69_5 >= 0
 head_hidden_69: a11 - h69_11 = 0
 rdr_addr_69: b46 - h69_11 = 0
 tail_sync_69_11: - a11 + t69_11 = 0
 tail_sync_69_3: - a3 + t69_3 = 0
 tail_req_69: - b46 + t69_3 >= 0
 head_hidden_70: a12 - h70_12 = 0
 rdr_addr_70: b70 - h70_12 = 0
 tail_sync_70_13: - a13 + t70_13 = 0
 tail_sync_70_12: - a12 + t70_12 = 0
 tail_req_70: - b70 + t70_13 >= 0
 head_hidden_70: a12 - h70_12 = 0
 rdr_addr_70: b61 - h70_12 = 0
 tail_sync_70_9: - a9 + t70_9 = 0
 tail_sync_70_6: - a6 + t70_6 = 0
 tail_sync_70_12: - a12 + t70_12 = 0
 tail_req_70: - b61 + t70_9 + t70_6 >= 0
 head_hidden_70: a12 - h70_12 = 0
 rdr_addr_70: b49 - h70_12 = 0
 tail_sync_70_9: - a9 + t70_9 = 0
 tail_sync_70_4: - a4 + t70_4 = 0
 tail_sync_70_12: - a12 + t70_12 = 0
 tail_req_70: - b49 + t70_9 + t70_4 >= 0
 head_hidden_70: a12 - h70_12 = 0
 rdr_addr_70: b43 - h70_12 = 0
 tail_sync_70_9: - a9 + t70_9 = 0
 tail_sync_70_3: - a3 + t70_3 = 0
 tail_sync_70_12: - a12 + t70_12 = 0
 tail_req_70: - b43 + t70_9 + t70_3 >= 0
 head_hidden_70: a12 - h70_12 = 0
 rdr_addr_70: b33 - h70_12 = 0
 tail_sync_70_9: - a9 + t70_9 = 0
 tail_sync_70_2: - a2 + t70_2 = 0
 tail_sync_70_12: - a12 + t70_12 = 0
 tail_req_70: - b33 + t70_9 + t70_2 >= 0
 head_hidden_70: a12 - h70_12 = 0
 rdr_addr_70: b68 - h70_12 = 0
 tail_sync_70_10: - a10 + t70_10 = 0
 tail_sync_70_12: - a12 + t70_12 = 0
 tail_req_70: - b68 + t70_10 >= 0
 head_hidden_70: a13 - h70_13 = 0
 rdr_addr_70: b70 - h70_13 = 0
 tail_sync_70_13: - a13 + t70_13 = 0
 tail_sync_70_12: - a12 + t70_12 = 0
 tail_req_70: - b70 + t70_12 >= 0
 head_hidden_70: a13 - h70_13 = 0
 rdr_addr_70: b69 - h70_13 = 0
 tail_sync_70_13: - a13 + t70_13 = 0
 tail_sync_70_10: - a10 + t70_10 = 0
 tail_req_70: - b69 + t70_10 >= 0
Bounds
 a0 = 1
Binaries
 a0 b0 h0_0 t0_0 a1 t0_1 a2 t0_2 b1 h1_0 t1_0 t1_1 a3 t1_3 b2 h2_0 t2_0 a4
 t2_4 a5 t2_5 b3 h3_0 t3_0 t3_1 a6 t3_6 b4 h4_0 t4_0 t4_5 t4_3 b5 h5_0 t5_0
 t5_1 t5_4 b6 h6_0 t6_0 a7 t6_7 b7 h7_0 t7_0 t7_5 t7_6 b8 h8_0 t8_0 t8_2
 t8_5 h8_1 t8_0 t8_1 t8_2 h8_1 t8_0 t8_1 t8_3 b9 h9_1 a8 t9_8 t9_1 t9_5 b10
 h10_1 t10_1 t10_3 b11 h11_1 t11_1 t11_5 t11_6 b12 h12_1 t12_1 t12_6 b13
 h13_1 t13_8 t13_1 b14 h14_1 t14_1 t14_5 b15 h15_1 a9 t15_9 t15_1 t15_5
 h15_1 t15_0 t15_1 t15_6 b16 h16_1 t16_1 t16_6 a10 t16_10 b17 h17_1 t17_2
 t17_1 t17_5 b18 h18_1 t18_1 t18_4 t18_5 b19 h19_1 t19_1 t19_4 b20 h20_1
 t20_1 t20_3 t20_10 h20_1 t20_0 t20_1 t20_4 b21 h21_1 a11 t21_11 t21_1 b22
 h22_1 t22_2 t22_1 t22_10 b23 h23_1 t23_11 t23_1 t23_5 b24 h24_1 t24_1
 t24_4 t24_10 b25 h25_1 t25_9 t25_1 b26 h26_1 t26_1 t26_5 t26_3 b27 h27_1
 t27_2 t27_1 h27_2 t27_0 t27_1 t27_2 b28 h28_2 t28_2 t28_5 t28_10 b29 h29_2
 t29_9 t29_2 b30 h30_2 t30_11 t30_2 b31 h31_2 t31_2 t31_4 b32 h32_2 t32_2
 t32_6 h32_2 t32_2 t32_1 t32_5 b33 h33_2 t33_9 t33_2 a12 t33_12 b34 h34_2
 t34_2 t34_5 b35 h35_2 t35_9 t35_2 t35_10 h35_2 t35_2 t35_1 t35_10 b36
 h36_2 t36_8 t36_2 b37 h37_2 t37_2 t37_3 h37_2 t37_2 t37_1 h37_2 t37_0
 t37_2 t37_5 h37_3 t37_0 t37_1 t37_3 h37_3 t37_1 t37_3 b38 h38_3 t38_9
 t38_3 b39 h39_3 t39_4 t39_3 b40 h40_3 t40_5 t40_3 t40_10 b41 h41_3 t41_5
 t41_3 b42 h42_3 t42_9 t42_3 t42_10 b43 h43_3 t43_9 t43_3 t43_12 h43_3
 t43_0 t43_5 t43_3 h43_3 t43_1 t43_3 t43_10 b44 h44_3 t44_8 t44_3 h44_3
 t44_2 t44_3 b45 h45_3 t45_6 t45_3 h45_3 t45_1 t45_5 t45_3 b46 h46_3 t46_11
 t46_3 b47 h47_4 t47_4 t47_6 b48 h48_4 t48_8 t48_4 h48_4 t48_0 t48_4 t48_5
 h48_4 t48_4 t48_3 h48_4 t48_2 t48_4 b49 h49_4 t49_9 t49_4 t49_12 b50 h50_4
 t50_11 t50_4 h50_4 t50_1 t50_4 t50_5 h50_4 t50_1 t50_4 h50_4 t50_0 t50_1
 t50_4 b51 h51_4 t51_4 t51_5 t51_10 b52 h52_4 t52_9 t52_4 h52_4 t52_1 t52_4
 t52_10 b53 h53_4 t53_4 t53_5 b54 h54_4 t54_9 t54_4 t54_10 h54_5 t54_2
 t54_5 t54_10 h54_5 t54_8 t54_1 t54_5 h54_5 t54_1 t54_5 t54_6 h54_5 t54_0
 t54_4 t54_5 h54_5 t54_5 t54_3 t54_10 h54_5 t54_1 t54_5 h54_5 t54_9 t54_1
 t54_5 h54_5 t54_2 t54_1 t54_5 h54_5 t54_5 t54_3 h54_5 t54_0 t54_5 t54_3
 h54_5 t54_1 t54_4 t54_5 h54_5 t54_2 t54_5 b55 h55_5 t55_9 t55_5 h55_5
 t55_4 t55_5 t55_10 b56 h56_5 t56_11 t56_5 h56_5 t56_11 t56_1 t56_5 b57
 h57_5 t57_5 t57_6 b58 h58_5 t58_8 t58_5 h58_5 t58_1 t58_5 t58_3 h58_5
 t58_4 t58_5 h58_5 t58_0 t58_5 t58_6 b59 h59_5 t59_5 t59_6 t59_10 h59_5
 t59_0 t59_2 t59_5 h59_6 t59_4 t59_6 h59_6 t59_1 t59_5 t59_6 h59_6 t59_1
 t59_6 b60 h60_6 t60_11 t60_6 h60_6 t60_0 t60_1 t60_6 b61 h61_6 t61_9 t61_6
 t61_12 h61_6 t61_1 t61_6 t61_10 b62 h62_6 t62_9 t62_6 h62_6 t62_2 t62_6
 b63 h63_6 t63_8 t63_6 b64 h64_6 t64_9 t64_6 t64_10 h64_6 t64_5 t64_6 h64_6
 t64_6 t64_3 h64_6 t64_0 t64_5 t64_6 h64_6 t64_5 t64_6 t64_10 h64_7 t64_0
 t64_7 h64_8 t64_8 t64_1 t64_5 h64_8 t64_8 t64_4 h64_8 t64_8 t64_1 b65
 h65_8 t65_11 t65_8 h65_8 t65_8 t65_3 h65_8 t65_8 t65_6 h65_8 t65_8 t65_2
 b66 h66_8 t66_9 t66_8 h66_8 t66_8 t66_5 h66_9 t66_9 t66_2 h66_9 t66_9
 t66_3 h66_9 t66_9 t66_1 t66_5 h66_9 t66_9 t66_6 t66_12 h66_9 t66_9 t66_6
 h66_9 t66_9 t66_4 t66_12 b67 h67_9 t67_11 t67_9 h67_9 t67_9 t67_3 t67_10
 h67_9 t67_9 t67_3 t67_12 h67_9 t67_9 t67_2 t67_12 h67_9 t67_9 t67_5 h67_9
 t67_9 t67_2 t67_10 h67_9 t67_9 t67_4 h67_9 t67_9 t67_6 t67_10 h67_9 t67_9
 t67_8 h67_9 t67_9 t67_1 h67_9 t67_9 t67_4 t67_10 h67_10 t67_2 t67_5 t67_10
 h67_10 t67_5 t67_3 t67_10 h67_10 t67_1 t67_6 t67_10 h67_10 t67_9 t67_3
 t67_10 h67_10 t67_1 t67_3 t67_10 h67_10 t67_9 t67_2 t67_10 h67_10 t67_4
 t67_5 t67_10 h67_10 t67_9 t67_6 t67_10 h67_10 t67_2 t67_1 t67_10 b68
 h68_10 t68_10 t68_12 h68_10 t68_1 t68_4 t68_10 b69 h69_10 a13 t69_13
 t69_10 h69_10 t69_5 t69_6 t69_10 h69_10 t69_9 t69_4 t69_10 h69_11 t69_11
 t69_2 h69_11 t69_11 t69_6 h69_11 t69_11 t69_8 h69_11 t69_11 t69_4 h69_11
 t69_11 t69_9 h69_11 t69_11 t69_1 h69_11 t69_11 t69_5 h69_11 t69_11 t69_1
 t69_5 h69_11 t69_11 t69_3 b70 h70_12 t70_13 t70_12 h70_12 t70_9 t70_6
 t70_12 h70_12 t70_9 t70_4 t70_12 h70_12 t70_9 t70_3 t70_12 h70_12 t70_9
 t70_2 t70_12 h70_12 t70_10 t70_12 h70_13 t70_13 t70_12 h70_13 t70_13
 t70_10
End
